(set-logic QF_S)
(declare-fun var_0xINPUT_113134 () String)
(assert (and (= (len var_0xINPUT_113134) 0) (= (len var_0xINPUT_113134) 0) (not (= var_0xINPUT_113134 "MEXdqBDMmF"))))
(check-sat var_0xINPUT_113134)